letting initialStacks = [47, 39, 51, 26, 8, 31, 1, 40, 42, 21, 50, 6, 29, 36, 41, 19, 20, 37, 17, 27, 43, 45, 34, 30, 28, 4, 7, 35, 10, 16, 3, 32, 48, 14, 13, 38, 25, 12, 11, 23, 24, 49, 5, 22, 9, 46, 33, 44, 18, 15, 2]
